(declare-const X String)
; Host\x3A\s+www\x2Eyoogee\x2Ecom
(assert (str.in.re X (re.++ (str.to.re "Host:") (re.+ (re.union (str.to.re " ") (str.to.re "\x09") (str.to.re "\x0a") (str.to.re "\x0c") (str.to.re "\x0d"))) (str.to.re "www.yoogee.com\x13\x0a"))))
(check-sat)
